CMPL model generation - running

CMPL version: 1.11.0
Authors: Thomas Schleiff, Mike Steglich
Distributed under the GPLv3 

create model instance ...
write model instance ...
CMPL model generation - finished

Solver - running


Welcome to IBM(R) ILOG(R) CPLEX(R) Interactive Optimizer 12.7.1.0
  with Simplex, Mixed Integer & Barrier Optimizers
5725-A06 5725-A29 5724-Y48 5724-Y49 5724-Y54 5724-Y55 5655-Y21
Copyright IBM Corp. 1988, 2017.  All Rights Reserved.

Type 'help' for a list of available commands.
Type 'help' followed by a command name for more
information on commands.

CPLEX> Specified objective sense: MINIMIZE
Selected objective  name:  line[1]
Selected RHS        name:  RHS
Selected bound      name:  BOUND
Problem '/tmp/cmpl.T24004.mps' read.
Read time = 0.05 sec. (8.17 ticks)
CPLEX> CPXPARAM_Read_APIEncoding                        "UTF-8"
Tried aggregator 3 times.
MIP Presolve eliminated 19238 rows and 30696 columns.
MIP Presolve modified 340 coefficients.
Aggregator did 622 substitutions.
Reduced MIP has 2495 rows, 3275 columns, and 9551 nonzeros.
Reduced MIP has 3107 binaries, 0 generals, 0 SOSs, and 0 indicators.
Presolve time = 0.06 sec. (40.42 ticks)
Found incumbent of value 428.519409 after 0.10 sec. (61.12 ticks)
Probing fixed 5 vars, tightened 0 bounds.
Probing time = 0.01 sec. (4.29 ticks)
Tried aggregator 1 time.
MIP Presolve eliminated 0 rows and 5 columns.
MIP Presolve modified 27 coefficients.
Reduced MIP has 2495 rows, 3270 columns, and 9541 nonzeros.
Reduced MIP has 3270 binaries, 0 generals, 0 SOSs, and 0 indicators.
Presolve time = 0.01 sec. (8.07 ticks)
Probing time = 0.01 sec. (2.67 ticks)
Clique table members: 5930.
MIP emphasis: balance optimality and feasibility.
MIP search method: dynamic search.
Parallel mode: none, using 1 thread.
Root relaxation solution time = 0.00 sec. (4.54 ticks)

        Nodes                                         Cuts/
   Node  Left     Objective  IInf  Best Integer    Best Bound    ItCnt     Gap

*     0+    0                          428.5194      -46.2830           110.80%
      0     0      141.9077    11      428.5194      141.9077      111   66.88%
*     0+    0                          155.8113      141.9077             8.92%
*     0+    0                          142.2220      141.9077             0.22%
      0     0      142.1431     2      142.2220      Cuts: 12      116    0.06%
*     0+    0                          142.1618      142.1431             0.01%
      0     0        cutoff            142.1618                    116    0.00%
Elapsed time = 0.16 sec. (102.40 ticks, tree = 0.01 MB, solutions = 4)

GUB cover cuts applied:  1
Cover cuts applied:  7
Gomory fractional cuts applied:  4

Root node processing (before b&c):
  Real time             =    0.16 sec. (104.11 ticks)
Sequential b&c:
  Real time             =    0.00 sec. (0.00 ticks)
                          ------------
Total (root+branch&cut) =    0.16 sec. (104.11 ticks)

Solution pool: 4 solutions saved.

MIP - Integer optimal solution:  Objective =  1.4216182400e+02
Solution time =    0.16 sec.  Iterations = 116  Nodes = 0
Deterministic time = 104.21 ticks  (639.00 ticks/sec)

CPLEX> Incumbent solution written to file '/tmp/cmpl.T24004.gsol'.
CPLEX> 
CMPL: Time used for model generation: 1 seconds
CMPL: Time used for solving the model: 1 seconds


Solution written to ASCII file: results/output_generated_conf_0.4/2016-11-07-4/fair-nonlinear.sol

Solver - finished
